824,775
807,888
18,105
610,707
596,534
594,584
632,674
21,111
187,246
824,838
565,547
781,824
300,332
28,24
789,815
10,10
30,57
857,801
810,901
616,548
735,720
844,799
349,269
219,253
681,726
272,316
230,322
645,584
668,655
241,239
166,213
201,284
44,34
418,505
21,114
370,374
25,52
142,192
751,828
928,994
178,157
507,601
79,170
582,499
629,530
597,603
542,477
274,180
797,879
724,635
899,911
34,132
193,96
519,459
281,362
872,953
295,357
572,625
660,679
520,528
79,36
94,18
982,1008
448,412
835,864
408,431
300,204
487,548
686,658
23,88
795,696
674,578
565,641
375,392
984,933

153
8913
2623
11086
1026
1525
1715
1963
1453
2333
